c description: Random 3-CNF over 12 variables and 51 clauses
c generator: CNFgen (0.9.2)
c copyright: (C) 2012-2022 Massimo Lauria <massimo.lauria@uniroma1.it>
c url: https://massimolauria.net/cnfgen
c command line: cnfgen --output CNF_4.28/12_bit_51_636.cnf randkcnf 3 12 51
c
p cnf 12 51
-2 -5 -12 0
1 -3 -12 0
-4 7 12 0
5 7 -9 0
1 2 -12 0
3 8 -12 0
2 -5 -12 0
-2 3 -9 0
5 9 -10 0
1 -7 -11 0
-5 -7 -9 0
-4 6 -9 0
3 -6 -10 0
-1 2 -11 0
3 -10 11 0
1 3 -5 0
1 5 9 0
3 -4 7 0
-2 -7 11 0
-6 10 -11 0
2 -3 -5 0
1 8 9 0
2 -3 10 0
6 -10 -12 0
6 -9 11 0
1 6 8 0
-2 -4 -8 0
-1 -3 5 0
-1 5 -7 0
-3 10 11 0
-2 3 -11 0
-1 3 -6 0
1 6 -7 0
4 -9 10 0
1 8 -10 0
4 8 -9 0
-2 -3 -8 0
-3 6 -9 0
-2 -3 -9 0
-5 -8 -9 0
-3 4 8 0
-5 7 -11 0
3 7 11 0
-4 -9 11 0
2 -3 9 0
-2 3 -7 0
2 -8 -9 0
-2 -8 11 0
1 5 -7 0
-1 9 -12 0
4 -7 10 0
